8
2147483647 62 76 23 52 80 31 4 
62 2147483647 18 28 63 45 16 78 
76 18 2147483647 76 62 25 27 89 
23 28 76 2147483647 30 64 93 99 
52 63 62 30 2147483647 57 9 100 
80 45 25 64 57 2147483647 5 94 
31 16 27 93 9 5 2147483647 53 
4 78 89 99 100 94 53 2147483647 
